Route #1: 1 56 30 19 22 26 54 53 20 1
Route #2: 1 18 52 40 8 12 64 55 58 49 27 1
Route #3: 1 6 46 33 62 43 39 3 42 17 51 36 5 1
Route #4: 1 63 29 24 34 2 13 14 1
Route #5: 1 44 50 10 23 16 28 1
Route #6: 1 31 38 61 37 4 1
Route #7: 1 7 65 47 48 35 32 1
Route #8: 1 21 59 41 60 45 1
Route #9: 1 11 9 25 57 15 1
cost 1424.3889374514426